(set-logic QF_S)
(declare-fun var0 () String)
(declare-fun var1 () String)
(declare-fun var2 () String)
(declare-fun var3 () Int)
(declare-fun var4 () Int)
(declare-fun var5 () Int)
(declare-fun var6 () Bool)
(declare-fun var7 () Bool)
(declare-fun var8 () Bool)
(assert (str.in.re var1 re.allchar))
(assert (str.in.re (str.at (str.replace var1 var2 var2) (str.len "f""J/G|uKrp")) (re.* (re.* re.allchar))))
(assert (not (<= 4 var5)))
(assert (< (str.indexof (str.substr var0 8 var3) (str.substr var1 var5 var3) (str.len var2)) (str.indexof (str.substr var0 var3 var3) (str.substr var2 7 var3) (str.indexof var2 var0 var3))))
(check-sat)